c description: Random 3-CNF over 25 variables and 107 clauses
c generator: CNFgen (0.9.2)
c copyright: (C) 2012-2022 Massimo Lauria <massimo.lauria@uniroma1.it>
c url: https://massimolauria.net/cnfgen
c command line: cnfgen --output CNF_4.28/25_bit_107_829.cnf randkcnf 3 25 107
c
p cnf 25 107
8 11 -17 0
5 9 -23 0
-17 18 -19 0
8 13 -22 0
20 -24 -25 0
-3 12 -25 0
-4 14 -16 0
10 20 21 0
-6 -12 18 0
-2 -9 10 0
2 -7 11 0
7 12 -25 0
7 -12 -17 0
17 -18 -25 0
4 -15 -25 0
5 11 -12 0
-16 18 -21 0
3 -19 -23 0
-6 11 12 0
-12 18 -25 0
-19 -20 22 0
-10 16 -18 0
-20 21 -25 0
12 -21 -24 0
-13 15 24 0
-6 -8 21 0
-4 -20 22 0
3 8 -23 0
-17 19 -25 0
-8 -19 22 0
3 12 -20 0
-2 -4 -22 0
-1 -2 23 0
-3 19 -23 0
2 -18 20 0
4 -6 20 0
1 18 22 0
-8 21 23 0
-3 7 -23 0
3 10 -24 0
3 -17 -23 0
-10 14 -15 0
15 -19 -22 0
-9 -12 -16 0
-2 -18 22 0
6 -9 -14 0
-9 -17 22 0
-17 18 19 0
-7 8 -12 0
10 23 -24 0
-14 15 19 0
-2 -7 8 0
5 -12 -24 0
17 22 -25 0
-18 21 -24 0
-5 -7 20 0
12 -21 -22 0
-3 -14 -19 0
-13 20 -23 0
10 -20 22 0
-3 20 22 0
-3 -15 -19 0
-19 22 23 0
-6 7 18 0
-12 -15 -25 0
12 -15 24 0
-7 -10 19 0
-2 -4 20 0
2 19 -23 0
-5 -17 24 0
-7 10 -21 0
1 -6 -7 0
1 -9 -13 0
15 16 -23 0
7 -9 -14 0
-4 -15 -21 0
7 11 -24 0
10 -21 23 0
7 13 -22 0
6 -8 20 0
7 9 23 0
-1 14 17 0
-11 -21 25 0
4 -20 21 0
-10 17 -22 0
-3 -16 22 0
-6 23 -24 0
-20 -23 25 0
-1 8 24 0
-16 18 25 0
8 16 -24 0
1 -16 -23 0
-1 -20 24 0
6 12 -14 0
-6 15 -19 0
-5 -21 23 0
-1 -3 8 0
4 -6 -20 0
-14 -17 -19 0
1 -11 -20 0
-2 4 18 0
5 22 25 0
1 -5 -25 0
15 -23 -24 0
-1 9 -20 0
4 10 -17 0
-1 4 12 0
